100
120
100
100
100
99
99
99
97
97
96
93
91
90
87
86
86
86
85
85
85
84
84
83
83
82
81
81
79
77
75
75
74
74
73
72
72
72
71
70
70
70
70
69
69
69
68
68
67
67
66
65
64
59
59
59
59
57
57
57
56
56
55
54
54
52
49
49
48
45
44
44
43
42
42
42
42
41
40
40
39
39
39
38
38
36
35
35
35
33
33
32
30
30
29
28
27
27
26
25
25
22
